
Gurobi 12.0.2 (win64) logging started Wed Nov 26 14:50:33 2025

Set parameter LogFile to value "resultados DATA_1_n50m10b2d2\instancia_3_log.txt"
Set parameter TimeLimit to value 3600
Gurobi Optimizer version 12.0.2 build v12.0.2rc0 (win64 - Windows 10.0 (19045.2))

CPU model: Intel(R) Core(TM) i5-6300U CPU @ 2.40GHz, instruction set [SSE2|AVX|AVX2]
Thread count: 2 physical cores, 4 logical processors, using up to 4 threads

Non-default parameters:
TimeLimit  3600

Optimize a model with 2152 rows, 5501 columns and 1859663 nonzeros
Model fingerprint: 0x7b2d87b4
Variable types: 0 continuous, 5501 integer (5501 binary)
Coefficient statistics:
  Matrix range     [1e+00, 1e+00]
  Objective range  [3e-02, 2e-01]
  Bounds range     [1e+00, 1e+00]
  RHS range        [1e+00, 2e+01]
Found heuristic solution: objective 0.6713680
Presolve removed 501 rows and 5243 columns
Presolve time: 1.78s
Presolved: 1651 rows, 258 columns, 42709 nonzeros
Found heuristic solution: objective 0.3623680
Variable types: 0 continuous, 258 integer (258 binary)

Root relaxation: objective 8.744200e-01, 562 iterations, 0.13 seconds (0.08 work units)

    Nodes    |    Current Node    |     Objective Bounds      |     Work
 Expl Unexpl |  Obj  Depth IntInf | Incumbent    BestBd   Gap | It/Node Time

     0     0    0.87442    0   70    0.67137    0.87442  30.2%     -    2s
H    0     0                       0.6886400    0.87442  27.0%     -    2s
H    0     0                       0.7663840    0.87442  14.1%     -    2s
H    0     0                       0.8126240    0.87442  7.60%     -    2s
H    0     0                       0.8262240    0.87442  5.83%     -    2s
     0     0    0.86560    0  114    0.82622    0.86560  4.77%     -    3s
     0     0    0.86520    0  106    0.82622    0.86520  4.72%     -    3s
     0     0    0.86487    0   99    0.82622    0.86487  4.68%     -    3s
     0     0    0.86450    0  116    0.82622    0.86450  4.63%     -    4s
     0     0    0.86448    0  120    0.82622    0.86448  4.63%     -    4s
     0     0    0.86424    0  115    0.82622    0.86424  4.60%     -    4s
     0     0    0.86415    0  117    0.82622    0.86415  4.59%     -    4s
H    0     0                       0.8377440    0.86415  3.15%     -    4s
     0     0    0.86415    0  120    0.83774    0.86415  3.15%     -    4s
     0     0    0.86415    0  122    0.83774    0.86415  3.15%     -    4s
     0     0    0.86401    0  124    0.83774    0.86401  3.14%     -    4s
     0     0    0.86399    0  123    0.83774    0.86399  3.13%     -    4s
     0     0    0.86389    0  122    0.83774    0.86389  3.12%     -    5s
     0     0    0.86387    0  123    0.83774    0.86387  3.12%     -    5s
     0     0    0.86381    0  128    0.83774    0.86381  3.11%     -    5s
     0     0    0.86381    0  127    0.83774    0.86381  3.11%     -    5s
     0     0    0.86381    0  129    0.83774    0.86381  3.11%     -    5s
H    0     0                       0.8391840    0.86381  2.93%     -    5s
H    0     0                       0.8484000    0.86381  1.82%     -    5s
     0     0    0.86379    0  128    0.84840    0.86379  1.81%     -    5s
     0     0    0.86379    0  128    0.84840    0.86379  1.81%     -    5s
H    0     0                       0.8511040    0.86379  1.49%     -    6s
     0     0    0.86378    0   76    0.85110    0.86378  1.49%     -    6s
     0     0    0.85889    0   81    0.85110    0.85889  0.91%     -    6s
     0     0    0.85888    0   81    0.85110    0.85888  0.91%     -    6s
     0     0    0.85888    0   86    0.85110    0.85888  0.91%     -    6s
     0     0    0.85888    0   94    0.85110    0.85888  0.91%     -    6s
     0     0    0.85730    0   72    0.85110    0.85730  0.73%     -    6s
     0     0    0.85722    0   73    0.85110    0.85722  0.72%     -    6s
     0     0    0.85719    0  102    0.85110    0.85719  0.72%     -    6s
     0     0    0.85715    0   95    0.85110    0.85715  0.71%     -    6s
     0     0    0.85715    0   99    0.85110    0.85715  0.71%     -    6s
     0     0    0.85715    0  101    0.85110    0.85715  0.71%     -    6s
     0     0    0.85689    0   85    0.85110    0.85689  0.68%     -    6s
     0     0    0.85689    0   94    0.85110    0.85689  0.68%     -    6s
     0     0    0.85689    0   90    0.85110    0.85689  0.68%     -    6s
     0     0    0.85689    0   94    0.85110    0.85689  0.68%     -    6s
     0     0    0.85689    0   98    0.85110    0.85689  0.68%     -    6s
     0     0    0.85689    0   98    0.85110    0.85689  0.68%     -    6s
     0     2    0.85689    0   88    0.85110    0.85689  0.68%     -    7s
*   44    15               3       0.8511040    0.85636  0.62%  22.3    7s
*   50    15               9       0.8511040    0.85636  0.62%  21.7    7s

Cutting planes:
  Gomory: 6
  Clique: 4
  Zero half: 11

Explored 68 nodes (4681 simplex iterations) in 7.21 seconds (3.63 work units)
Thread count was 4 (of 4 available processors)

Solution count 10: 0.851104 0.851104 0.851104 ... 0.779344

Optimal solution found (tolerance 1.00e-04)
Best objective 8.511040028174e-01, best bound 8.511040028900e-01, gap 0.0000%
